data/MCDM/NO_CORR/GEN_FROM_60/12_ITEMS_1000_GEN/K5012W08.KNP.mps
NAME          BLANK   
ROWS
 N  OBJROW
 L  R0000000
COLUMNS
    C0000000  OBJROW     -679.         R0000000  762.        
    C0000001  OBJROW     -708.         R0000000  264.        
    C0000002  OBJROW     -265.         R0000000  599.        
    C0000003  OBJROW     -248.         R0000000  989.        
    C0000004  OBJROW     -980.         R0000000  590.        
    C0000005  OBJROW     -279.         R0000000  891.        
    C0000006  OBJROW     -678.         R0000000  747.        
    C0000007  OBJROW     -14.          R0000000  377.        
    C0000008  OBJROW     -755.         R0000000  937.        
    C0000009  OBJROW     -216.         R0000000  530.        
    C0000010  OBJROW     -801.         R0000000  411.        
    C0000011  OBJROW     -600.         R0000000  482.        
RHS
    RHS       R0000000  15314.      
BOUNDS
 BV BOUND     C0000000  1.          
 BV BOUND     C0000001  1.          
 BV BOUND     C0000002  1.          
 BV BOUND     C0000003  1.          
 BV BOUND     C0000004  1.          
 BV BOUND     C0000005  1.          
 BV BOUND     C0000006  1.          
 BV BOUND     C0000007  1.          
 BV BOUND     C0000008  1.          
 BV BOUND     C0000009  1.          
 BV BOUND     C0000010  1.          
 BV BOUND     C0000011  1.          
ENDATA
