data/MCDM/NO_CORR/GEN_FROM_60/12_ITEMS_1000_GEN/K5012W08.KNP.txt
N 12
M 13
LC 12
LC 13
LC 14
LC 15
LC 16
LC 17
LC 18
LC 19
LC 20
LC 21
LC 22
LC 23
LR 1
LR 2
LR 3
LR 4
LR 5
LR 6
LR 7
LR 8
LR 9
LR 10
LR 11
LR 12
LR 13
LO -679
LO -708
LO -265
LO -248
LO -980
LO -279
LO -678
LO -14
LO -755
LO -216
LO -801
LO -600
OS 1
IC 613
IC 790
IC 664
IC 339
IC 598
IC 222
IC 785
IC 623
IC 924
IC 647
IC 426
IC 944
IB 3788
